benchmarks/VRPTW/TSPTW/solution/n20w180.001.txt.solution
1 20 14 4 13 19 6 16 18 2 12 11 15 8 17 7 9 10 5 21 3 
253
